!  GAMESS input
!  Generated by Molby at 2022-09-05 13:52:49 -0500
!  Basis set: 6-31G(d)
 $CONTRL COORD=UNIQUE EXETYP=RUN ICHARG=0
         ICUT=20 INTTYP=HONDO ITOL=30
         MAXIT=200 MOLPLT=.T. MPLEVL=0
         MULT=1 QMTTOL=1e-08 RUNTYP=OPTIMIZE
         SCFTYP=RHF UNITS=ANGS NZVAR=21 $END
 $SCF    CONV=1.0E-06 DIRSCF=.T. FDIFF=.T.
         DAMP=.T. $END
 $STATPT NSTEP=400 OPTTOL=1.0E-06 $END
 $SYSTEM MEMDDI=0 MWORDS=16 TIMLIM=50000 $END
 $GUESS  GUESS=HUCKEL $END
 $BASIS  GBASIS=N31 NGAUSS=6 NDFUNC=1 $END
 $ZMAT   DLC=.T. AUTO=.T. $END
 $ELPOT  IEPOT=1 OUTPUT=PUNCH WHERE=PDC $END
 $PDC    CONSTR=NONE PTSEL=CONNOLLY $END
 $DATA
EtOH
C1 0
C         6  -6.739000   2.962000  -0.051000
C         6  -5.301000   2.468000  -0.007000
H         1  -7.025000   3.209000  -1.095000
H         1  -6.850000   3.868000   0.581000
H         1  -7.418000   2.171000   0.332000
O         8  -4.450000   3.470000  -0.490000
H         1  -3.531000   3.097000  -0.440000
H         1  -5.215000   1.559000  -0.643000
H         1  -5.038000   2.224000   1.046000
 $END
