pair_coeff	1	2	0.04735229667080573	2.998943265
pair_coeff	1	3	0.10012691945725685	3.320290432635
pair_coeff	1	4	0.02250910926713894	1.9678170886265
pair_coeff	1	5	0.04735229667080573	2.9098533931899997
pair_coeff	2	3	0.04398181442369107	2.921524166395
pair_coeff	2	4	0.009887365675446621	1.5690508223865
pair_coeff	2	5	0.0208	2.5110871269499997
pair_coeff	3	4	0.02090693664791664	1.8903979900215
pair_coeff	3	5	0.04398181442369107	2.832434294585
pair_coeff	4	5	0.009887365675446621	1.4799609505765
