!  GAMESS input
!  Generated by Molby at 2022-09-05 13:58:06 -0500
!  Basis set: 6-31G(d)
 $CONTRL COORD=UNIQUE EXETYP=RUN ICHARG=0
         ICUT=20 INTTYP=HONDO ITOL=30
         MAXIT=200 MOLPLT=.T. MPLEVL=0
         MULT=1 QMTTOL=1e-08 RUNTYP=OPTIMIZE
         SCFTYP=RHF UNITS=ANGS NZVAR=12 $END
 $SCF    CONV=1.0E-06 DIRSCF=.T. FDIFF=.T.
         DAMP=.T. $END
 $STATPT NSTEP=400 OPTTOL=1.0E-06 $END
 $SYSTEM MEMDDI=0 MWORDS=16 TIMLIM=50000 $END
 $GUESS  GUESS=HUCKEL $END
 $BASIS  GBASIS=N31 NGAUSS=6 NDFUNC=1 $END
 $ZMAT   DLC=.T. AUTO=.T. $END
 $ELPOT  IEPOT=1 OUTPUT=PUNCH WHERE=PDC $END
 $PDC    CONSTR=NONE PTSEL=CONNOLLY $END
 $DATA
MeOH
C1 0
C         6  -8.802000   2.021000   0.005000
O         8  -7.569000   1.363000  -0.016000
H         1  -6.881000   2.068000   0.107000
H         1  -9.611000   1.274000  -0.129000
H         1  -8.864000   2.753000  -0.829000
H         1  -8.954000   2.525000   0.985000
 $END
