!  GAMESS input
!  Generated by Molby at 2022-08-25 12:44:21 -0500
!  Basis set: 6-31G(d,p)
 $CONTRL COORD=UNIQUE EXETYP=RUN ICHARG=1
         ICUT=20 INTTYP=HONDO ITOL=30
         MAXIT=200 MOLPLT=.T. MPLEVL=0
         MULT=1 QMTTOL=1e-08 RUNTYP=OPTIMIZE
         SCFTYP=UHF UNITS=ANGS NZVAR=69 $END
 $SCF    CONV=1.0E-06 DIRSCF=.T. FDIFF=.T.
         DAMP=.T. $END
 $STATPT NSTEP=400 OPTTOL=1.0E-06 $END
 $SYSTEM MEMDDI=0 MWORDS=16 TIMLIM=50000 $END
 $GUESS  GUESS=HUCKEL $END
 $BASIS  GBASIS=N31 NGAUSS=6 NDFUNC=1 NPFUNC=1 $END
 $ZMAT   DLC=.T. AUTO=.T. $END
 $ELPOT  IEPOT=1 OUTPUT=PUNCH WHERE=PDC $END
 $PDC    CONSTR=NONE PTSEL=CONNOLLY $END
 $DATA
lysine
C1 0
CE        6   5.133000  -2.669000   0.102000
CD        6   4.184000  -1.511000   0.440000
CG        6   2.815000  -1.707000  -0.225000
HD1       1   4.631000  -0.557000   0.086000
HD2       1   4.053000  -1.458000   1.543000
CB        6   1.866000  -0.549000   0.124000
HG1       1   2.370000  -2.663000   0.129000
HG2       1   2.966000  -1.762000  -1.324000
CA        6   0.439000  -0.718000  -0.457000
HB1       1   2.304000   0.409000  -0.235000
HB2       1   1.783000  -0.506000   1.233000
C         6  -0.485000   0.391000   0.023000
O         8  -1.798000   0.376000  -0.296000
NZ        7   6.436000  -2.479000   0.737000
HZ1       1   6.328000  -2.442000   1.777000
HZ2       1   6.876000  -1.593000   0.397000
HE1       1   5.268000  -2.730000  -1.001000
HE2       1   4.690000  -3.628000   0.455000
H         1  -2.193000  -0.338000  -0.814000
OXT       8  -0.063000   1.304000   0.718000
N         7   0.471000  -0.725000  -1.924000
H1        1  -0.499000  -0.811000  -2.303000
H2        1   0.978000  -1.571000  -2.264000
HA        1   0.021000  -1.681000  -0.087000
HZ3       1   7.059000  -3.281000   0.489000
 $END
