!  GAMESS input
!  Generated by Molby at 2022-08-26 18:50:12 -0500
!  Basis set: 6-31G(d,p)
 $CONTRL COORD=UNIQUE EXETYP=RUN ICHARG=1
         ICUT=20 INTTYP=HONDO ITOL=30
         MAXIT=200 MOLPLT=.T. MPLEVL=0
         MULT=1 QMTTOL=1e-08 RUNTYP=OPTIMIZE
         SCFTYP=UHF UNITS=ANGS NZVAR=78 $END
 $SCF    CONV=1.0E-06 DIRSCF=.T. FDIFF=.T.
         DAMP=.T. $END
 $STATPT NSTEP=400 OPTTOL=1.0E-06 $END
 $SYSTEM MEMDDI=0 MWORDS=16 TIMLIM=50000 $END
 $GUESS  GUESS=HUCKEL $END
 $BASIS  GBASIS=N31 NGAUSS=6 NDFUNC=1 NPFUNC=1 $END
 $ZMAT   DLC=.T. AUTO=.T. $END
 $ELPOT  IEPOT=1 OUTPUT=PUNCH WHERE=PDC $END
 $PDC    CONSTR=NONE PTSEL=CONNOLLY $END
 $DATA
tryptophan
C1 0
CH2       6  -3.482000   1.406000   0.782000
CZ3       6  -4.113000   2.667000   0.873000
CE3       6  -3.585000   3.779000   0.192000
CD2       6  -2.430000   3.590000  -0.568000
CE2       6  -1.819000   2.366000  -0.656000
CZ2       6  -2.318000   1.246000   0.008000
CG        6  -1.690000   4.472000  -1.333000
CD1       6  -0.644000   3.713000  -1.867000
NE1       7  -0.732000   2.432000  -1.443000
HE1       1  -0.085000   1.650000  -1.687000
CB        6  -2.012000   5.935000  -1.531000
CA        6  -0.987000   6.735000  -2.378000
HB1       1  -2.111000   6.426000  -0.539000
HB2       1  -3.003000   5.962000  -2.035000
C         6  -1.517000   8.119000  -2.729000
N         7   0.291000   6.874000  -1.661000
H1        1   0.691000   5.947000  -1.400000
H2        1   0.155000   7.429000  -0.784000
HA        1  -0.831000   6.196000  -3.339000
O         8  -2.593000   8.507000  -2.299000
OXT       8  -0.807000   8.939000  -3.534000
HXT       1   0.037000   8.672000  -3.923000
H3        1   0.995000   7.359000  -2.261000
HD1       1   0.133000   4.064000  -2.532000
HZ3       1  -5.008000   2.778000   1.472000
HE3       1  -4.064000   4.747000   0.258000
HH2       1  -3.896000   0.558000   1.311000
HZ2       1  -1.828000   0.284000  -0.069000
 $END
