!  GAMESS input
!  Generated by Molby at 2022-08-27 10:49:55 -0500
!  Basis set: 6-31G(d,p)
 $CONTRL COORD=UNIQUE EXETYP=RUN ICHARG=1
         ICUT=20 INTTYP=HONDO ITOL=30
         MAXIT=200 MOLPLT=.T. MPLEVL=0
         MULT=1 QMTTOL=1e-08 RUNTYP=OPTIMIZE
         SCFTYP=UHF UNITS=ANGS NZVAR=81 $END
 $SCF    CONV=1.0E-06 DIRSCF=.T. FDIFF=.T.
         DAMP=.T. $END
 $STATPT NSTEP=400 OPTTOL=1.0E-06 $END
 $SYSTEM MEMDDI=0 MWORDS=16 TIMLIM=50000 $END
 $GUESS  GUESS=HUCKEL $END
 $BASIS  GBASIS=N31 NGAUSS=6 NDFUNC=1 NPFUNC=1 $END
 $ZMAT   DLC=.T. AUTO=.T. $END
 $ELPOT  IEPOT=1 OUTPUT=PUNCH WHERE=PDC $END
 $PDC    CONSTR=NONE PTSEL=CONNOLLY $END
 $DATA
arginine
C1 0
CZ        6   4.985000  -1.911000   0.587000
NH1       7   5.832000  -2.960000   0.008000
NH2       7   4.956000  -2.062000   2.047000
NE        7   3.629000  -2.015000   0.012000
CD        6   2.701000  -0.997000   0.526000
CG        6   1.390000  -1.011000  -0.272000
HD1       1   3.159000   0.015000   0.452000
HD2       1   2.460000  -1.219000   1.587000
CB        6   0.390000   0.008000   0.299000
HG1       1   0.958000  -2.033000  -0.225000
HG2       1   1.610000  -0.757000  -1.332000
CA        6  -0.908000   0.142000  -0.535000
HB1       1   0.887000   1.004000   0.315000
HB2       1   0.139000  -0.277000   1.345000
C         6  -1.814000   1.209000   0.048000
O         8  -2.859000   1.487000  -0.520000
OXT       8  -1.482000   1.861000   1.185000
N         7  -1.633000  -1.131000  -0.597000
HA        1  -0.631000   0.459000  -1.566000
HE        1   3.718000  -1.885000  -1.024000
H1        1  -2.515000  -1.004000  -1.146000
H2        1  -1.073000  -1.832000  -1.130000
HXT       1  -2.055000   2.541000   1.567000
HH21      1   5.936000  -2.071000   2.412000
HH22      1   4.508000  -1.224000   2.481000
HZ        1   5.427000  -0.919000   0.330000
HH11      1   5.872000  -2.857000  -1.031000
HH12      1   5.446000  -3.902000   0.245000
HH13      1   6.806000  -2.882000   0.381000
 $END
